objective value:                                  -16
t_n_3                                               1 	(obj:-1)
t_n_138                                             1 	(obj:-1)
t_n_292                                             1 	(obj:-1)
t_n_349                                             1 	(obj:-1)
t_n_500                                             1 	(obj:-1)
t_n_692                                             1 	(obj:-1)
t_n_719                                             1 	(obj:-1)
t_n_777                                             1 	(obj:-1)
t_n_783                                             1 	(obj:-1)
t_n_807                                             1 	(obj:-1)
t_n_857                                             1 	(obj:-1)
t_n_866                                             1 	(obj:-1)
t_n_897                                             1 	(obj:-1)
t_n_923                                             1 	(obj:-1)
t_n_942                                             1 	(obj:-1)
t_n_962                                             1 	(obj:-1)
